proyfinal/src/viki/013/experimentInOfficeAgust.take6.output/c0429f41-7150-402e-a021-762886cbc2c8.als.out
Reading from standard input... Use '--help' for help.
============================[ Problem Statistics ]=============================
|                                                                             |
|  Number of variables:         87638                                         |
|  Number of clauses:          161767                                         |
|  Parse time:                   0.04 s                                       |
|                                                                             |
============================[ Search Statistics ]==============================
| Conflicts |          ORIGINAL         |          LEARNT          | Progress |
|           |    Vars  Clauses Literals |    Limit  Clauses Lit/Cl |          |
===============================================================================
|       100 |   62245   104668   261562 |    38378      100     23 | 28.975 % |
|       250 |   62245   104668   261562 |    42216      250     64 | 28.975 % |
|       475 |   62245   104668   261562 |    46437      475     80 | 28.975 % |
|       812 |   62227   104598   261395 |    51081      685    103 | 28.995 % |
|      1318 |   62227   104598   261395 |    56189     1191     98 | 28.995 % |
|      2077 |   62219   104566   261307 |    61808     1870    107 | 29.005 % |
|      3216 |   43579    50353   128446 |    67989     2981    121 | 50.274 % |
===============================================================================
restarts              : 20
conflicts             : 3780           (6764 /sec)
decisions             : 14233          (0.00 % random) (25469 /sec)
propagations          : 6303339        (11279609 /sec)
conflict literals     : 383054         (41.07 % deleted)
Memory used           : 28.88 MB
CPU time              : 0.558826 s

UNSATISFIABLE
